NAME : single
TYPE : ATSP
DIMENSION : 12
EDGE_WEIGHT_TYPE : EXPLICIT
EDGE_WEIGHT_FORMAT : FULL_MATRIX
EDGE_WEIGHT_SECTION
0 763 656 856 859 780 875 489 619 472 244 209 
0 0 207 176 131 253 117 214 217 375 476 492 
0 207 0 210 193 139 275 133 153 251 392 407 
0 176 210 0 44 170 243 344 402 562 606 622 
0 131 193 44 0 215 198 320 344 466 596 611 
0 253 139 170 215 0 185 261 292 375 537 553 
0 117 275 243 198 185 0 353 329 469 680 696 
0 214 133 344 320 261 353 0 115 178 263 279 
0 217 153 402 344 292 329 115 0 142 303 319 
0 375 251 562 466 375 469 178 142 0 230 236 
0 476 392 606 596 537 680 263 303 230 0 294 
0 492 407 622 611 553 696 279 319 236 294 0 
EOF